c 
p cnf 10 40
10 2 7 0
-1 -3 -9 0
-8 6 -4 0
7 -10 -1 0
9 -1 -4 0
-7 -3 10 0
-4 5 9 0
6 -10 -8 0
4 -10 8 0
-1 9 3 0
2 -8 -7 0
5 8 1 0
-6 8 4 0
3 -10 7 0
6 -8 -3 0
-8 -10 -4 0
3 10 2 0
-4 9 10 0
10 -2 -4 0
10 9 2 0
2 6 -8 0
-9 -2 -4 0
5 -3 -6 0
5 -1 8 0
4 6 -2 0
8 1 -2 0
3 6 -1 0
-9 -2 -7 0
-4 -7 1 0
5 3 9 0
-6 3 -4 0
7 2 -5 0
-9 -6 -8 0
-9 8 -6 0
-5 -4 1 0
-5 9 4 0
-7 -2 -1 0
10 1 7 0
-6 2 -7 0
5 4 7 0
